(set-logic ALL)
(set-option :produce-models true)
(declare-sort BoundSet 0)
(declare-sort UnboundSet 0)
(declare-fun IsHelping (BoundSet BoundSet) Bool)
(declare-fun IsOnRock (BoundSet) Bool)
(declare-fun HasRope (BoundSet) Bool)
(assert (not (=> (exists ((d BoundSet)) (exists ((b BoundSet)) (exists ((c BoundSet)) (exists ((a BoundSet)) (and (IsHelping a b) (and (IsOnRock c) (HasRope d))))))) (exists ((d BoundSet)) (exists ((b BoundSet)) (exists ((c BoundSet)) (exists ((a BoundSet)) (and (IsHelping a b) (and (IsOnRock c) (HasRope d))))))))))
(check-sat)
(get-model)